NAME: instance_1234
TYPE: TSP
DIMENSION: 20
EDGE_WEIGHT_TYPE: EUC_2D
NODE_COORD_SECTION
0 59.52 67.88
1 77.20 38.66
2 51.67 44.90
3 62.26 48.36
4 92.81 75.75
5 92.74 27.32
6 85.71 88.60
7 72.31 56.46
8 13.08 47.14
9 13.29 32.16
10 13.38 40.16
11 43.08 19.78
12 91.91 81.76
13 25.51 79.97
14 22.61 27.37
15 23.71 49.27
16 73.64 91.98
17 50.95 1.17
18 52.89 69.52
19 98.02 96.65
EOF
